NAME : local_8
TYPE : ATSP
DIMENSION : 34
EDGE_WEIGHT_TYPE : EXPLICIT
EDGE_WEIGHT_FORMAT : FULL_MATRIX
EDGE_WEIGHT_SECTION
0 10000000 621 10000000 989 10000000 10000000 10000000 10000000 806 10000000 10000000 10000000 155 10000000 10000000 855 10000000 1053 873 10000000 10000000 10000000 982 10000000 10000000 10000000 1055 10000000 813 10000000 709 438 10000000 
0 0 10000000 1015 10000000 10000000 10000000 275 547 10000000 728 962 10000000 10000000 10000000 117 10000000 10000000 326 10000000 10000000 10000000 10000000 10000000 10000000 10000000 10000000 706 10000000 10000000 645 698 911 10000000 
0 10000000 0 978 631 10000000 722 10000000 10000000 821 10000000 10000000 10000000 627 10000000 10000000 273 543 10000000 480 10000000 10000000 10000000 919 10000000 10000000 10000000 10000000 10000000 281 10000000 10000000 879 601 
0 1044 978 0 10000000 10000000 10000000 10000000 1025 10000000 10000000 10000000 857 10000000 10000000 10000000 741 637 10000000 10000000 10000000 10000000 10000000 10000000 10000000 10000000 795 10000000 375 905 535 10000000 10000000 834 
0 10000000 631 10000000 0 10000000 165 10000000 10000000 516 10000000 10000000 896 889 10000000 10000000 727 10000000 10000000 153 529 441 10000000 492 10000000 10000000 10000000 10000000 995 398 10000000 10000000 10000000 370 
0 10000000 10000000 10000000 10000000 0 10000000 10000000 10000000 10000000 10000000 798 492 10000000 10000000 10000000 10000000 10000000 10000000 10000000 10000000 10000000 139 10000000 974 580 375 10000000 793 10000000 10000000 10000000 10000000 10000000 
0 10000000 722 10000000 165 10000000 0 10000000 10000000 662 10000000 10000000 747 10000000 10000000 10000000 761 10000000 10000000 266 623 332 1025 617 10000000 10000000 10000000 10000000 895 455 10000000 10000000 10000000 292 
0 275 10000000 10000000 10000000 10000000 10000000 0 323 10000000 466 715 10000000 10000000 10000000 173 10000000 10000000 475 10000000 10000000 10000000 10000000 10000000 775 844 10000000 440 10000000 10000000 828 558 773 10000000 
0 547 10000000 1024 10000000 10000000 10000000 323 0 10000000 221 417 10000000 10000000 884 477 10000000 10000000 797 10000000 10000000 10000000 10000000 10000000 542 523 746 425 951 10000000 908 764 916 10000000 
0 10000000 821 10000000 516 10000000 662 10000000 10000000 0 10000000 10000000 10000000 660 926 10000000 10000000 10000000 10000000 544 290 802 10000000 189 10000000 10000000 10000000 10000000 10000000 739 10000000 10000000 768 852 
0 728 10000000 10000000 10000000 10000000 10000000 466 221 10000000 0 261 10000000 10000000 676 638 10000000 10000000 929 10000000 10000000 10000000 10000000 10000000 325 444 792 321 10000000 10000000 10000000 750 881 10000000 
0 962 10000000 10000000 10000000 798 10000000 715 417 10000000 261 0 1048 10000000 677 883 10000000 10000000 10000000 10000000 10000000 10000000 891 10000000 236 226 669 538 10000000 10000000 10000000 988 10000000 10000000 
0 10000000 10000000 857 896 492 747 10000000 10000000 10000000 10000000 1031 0 10000000 10000000 10000000 10000000 10000000 10000000 925 10000000 767 356 10000000 10000000 878 494 10000000 483 946 10000000 10000000 10000000 632 
0 10000000 627 10000000 889 10000000 10000000 10000000 10000000 660 10000000 10000000 10000000 0 10000000 10000000 874 10000000 10000000 789 944 10000000 10000000 840 10000000 10000000 10000000 913 10000000 771 10000000 689 370 10000000 
0 10000000 10000000 10000000 10000000 10000000 10000000 10000000 884 926 676 677 10000000 10000000 0 10000000 10000000 10000000 10000000 10000000 921 10000000 10000000 10000000 450 867 10000000 568 10000000 10000000 10000000 857 852 10000000 
0 117 10000000 10000000 10000000 10000000 10000000 173 477 10000000 638 883 10000000 10000000 10000000 0 10000000 10000000 331 10000000 10000000 10000000 10000000 10000000 948 998 10000000 592 10000000 10000000 742 598 822 10000000 
0 10000000 273 741 727 10000000 761 10000000 10000000 10000000 10000000 10000000 10000000 874 10000000 10000000 0 313 10000000 585 10000000 10000000 10000000 10000000 10000000 10000000 10000000 10000000 812 331 10000000 10000000 10000000 545 
0 10000000 543 637 10000000 10000000 10000000 10000000 10000000 10000000 10000000 10000000 10000000 10000000 10000000 10000000 313 0 10000000 894 10000000 10000000 10000000 10000000 10000000 10000000 10000000 10000000 843 641 892 10000000 10000000 798 
0 326 10000000 10000000 10000000 10000000 10000000 475 797 10000000 929 10000000 10000000 10000000 10000000 331 10000000 10000000 0 10000000 10000000 10000000 10000000 10000000 10000000 10000000 10000000 793 10000000 10000000 874 581 812 10000000 
0 10000000 480 10000000 153 10000000 266 10000000 10000000 544 10000000 10000000 925 789 10000000 10000000 585 894 10000000 0 628 582 10000000 568 10000000 10000000 10000000 10000000 946 253 10000000 10000000 984 331 
0 10000000 10000000 10000000 529 10000000 623 10000000 10000000 290 10000000 10000000 10000000 944 921 10000000 10000000 10000000 10000000 628 0 636 10000000 158 10000000 10000000 10000000 10000000 10000000 870 10000000 10000000 10000000 878 
0 10000000 10000000 10000000 441 10000000 332 10000000 10000000 802 10000000 10000000 767 10000000 10000000 10000000 10000000 10000000 10000000 582 636 0 992 687 10000000 10000000 10000000 10000000 10000000 786 10000000 10000000 10000000 575 
0 10000000 10000000 10000000 10000000 139 1039 10000000 10000000 10000000 10000000 918 356 10000000 10000000 10000000 10000000 10000000 10000000 10000000 10000000 953 0 10000000 10000000 688 376 10000000 704 10000000 10000000 10000000 10000000 918 
0 10000000 919 10000000 492 10000000 617 10000000 10000000 189 10000000 10000000 10000000 840 10000000 10000000 10000000 10000000 10000000 568 158 687 10000000 0 10000000 10000000 10000000 10000000 10000000 797 10000000 10000000 954 857 
0 10000000 10000000 10000000 10000000 974 10000000 775 542 10000000 325 236 10000000 10000000 450 948 10000000 10000000 10000000 10000000 10000000 10000000 10000000 10000000 0 441 888 463 10000000 10000000 10000000 907 985 10000000 
0 10000000 10000000 10000000 10000000 580 10000000 844 523 10000000 444 226 856 10000000 867 998 10000000 10000000 10000000 10000000 10000000 10000000 667 10000000 441 0 471 741 905 10000000 10000000 10000000 10000000 10000000 
0 10000000 10000000 795 10000000 375 10000000 10000000 746 10000000 792 669 494 10000000 10000000 10000000 10000000 10000000 10000000 10000000 10000000 10000000 376 10000000 888 471 0 10000000 526 10000000 10000000 10000000 10000000 960 
0 706 10000000 10000000 10000000 10000000 10000000 440 425 10000000 321 538 10000000 1005 568 592 10000000 10000000 793 10000000 10000000 10000000 10000000 10000000 463 741 10000000 0 10000000 10000000 10000000 453 593 10000000 
0 10000000 10000000 375 995 793 895 10000000 962 10000000 10000000 10000000 483 10000000 10000000 10000000 812 843 10000000 946 10000000 10000000 704 10000000 10000000 905 526 10000000 0 840 857 10000000 10000000 640 
0 10000000 281 905 398 10000000 455 10000000 10000000 739 10000000 10000000 946 771 10000000 10000000 331 641 10000000 253 870 786 10000000 797 10000000 10000000 10000000 10000000 840 0 10000000 10000000 977 326 
0 645 10000000 535 10000000 10000000 10000000 828 908 10000000 10000000 10000000 10000000 10000000 10000000 742 10000000 889 874 10000000 10000000 10000000 10000000 10000000 10000000 10000000 10000000 10000000 857 10000000 0 10000000 10000000 10000000 
0 698 10000000 10000000 10000000 10000000 10000000 558 764 10000000 750 988 10000000 689 857 598 10000000 10000000 581 10000000 10000000 10000000 10000000 10000000 907 10000000 10000000 453 10000000 10000000 10000000 0 344 10000000 
0 911 895 10000000 10000000 10000000 10000000 773 916 768 881 10000000 10000000 370 852 822 10000000 10000000 812 989 10000000 10000000 10000000 954 985 10000000 10000000 593 10000000 986 10000000 344 0 10000000 
0 10000000 10000000 10000000 10000000 10000000 10000000 10000000 10000000 10000000 10000000 10000000 10000000 10000000 10000000 10000000 10000000 10000000 10000000 10000000 10000000 10000000 10000000 10000000 10000000 10000000 10000000 10000000 10000000 10000000 10000000 10000000 10000000 0 
EOF